% File represents an instance of a Composite Structure problem to be solved by a CP framework
% Created on 2025-03-26 10:41:19.571
T = 50;
n = 9;
m = 12;
edges = [(1, 2),
(4, 5),
(7, 8),
(2, 3),
(5, 6),
(8, 9),
(1, 4),
(4, 7),
(2, 5),
(5, 8),
(3, 6),
(6, 9)];
counts = [|10, 14, 10, 16,
|10, 8, 10, 16,
|10, 8, 10, 10,
|8, 14, 8, 14,
|8, 8, 8, 14,
|8, 8, 8, 8,
|8, 14, 8, 8,
|8, 8, 8, 8,
|8, 8, 8, 2|];
